letting n =  10
letting blocks =  [[1, 2], [1, 6], [1, 7], [1, 9], [1, 10], [2, 3], [2, 4], [2, 5], [2, 6], [2, 9], [2, 10], [3, 2], [3, 5], [3, 8], [4, 4], [4, 7], [4, 9], [5, 2], [5, 4], [5, 5], [5, 8], [5, 10], [6, 1], [6, 2], [6, 4], [6, 5], [6, 7], [6, 8], [7, 1], [7, 3], [7, 4], [7, 8], [7, 9], [8, 1], [8, 2], [8, 4], [8, 6], [8, 7], [8, 10], [9, 1], [9, 2], [9, 3], [9, 6], [9, 7], [10, 7], [10, 10]]
